NAME /Users/henri/Research/solvers/instances/idol-instances/robust/collection/cbp_Subramanyam_et_al_2020/CapBud_N30_10/models/uncertain_technology_matrix/
ROWS
 N  OBJ
 L  capacity
 L  c_6015
 L  c_6016
 L  c_6017
 L  c_6018
 L  c_6019
 L  c_6020
 L  c_6021
 L  c_6022
 L  c_6023
 L  c_6024
 L  c_6025
 L  c_6026
 L  c_6027
 L  c_6028
 L  c_6029
 L  c_6030
 L  c_6031
 L  c_6032
 L  c_6033
 L  c_6034
 L  c_6035
 L  c_6036
 L  c_6037
 L  c_6038
 L  c_6039
 L  c_6040
 L  c_6041
 L  c_6042
 L  c_6043
 L  c_6044
COLUMNS
    MARKER    'MARKER'                 'INTORG'
    x_0        OBJ        -2.22059
    x_0        c_6015     1
    x_0        capacity   0.444119
    x_1        OBJ        -2.9043
    x_1        c_6016     1
    x_1        capacity   0.58086
    x_2        OBJ        -3.90729
    x_2        c_6017     1
    x_2        capacity   0.781458
    x_3        OBJ        -1.68043
    x_3        c_6018     1
    x_3        capacity   0.336086
    x_4        OBJ        -2.29652
    x_4        c_6019     1
    x_4        capacity   0.459305
    x_5        OBJ        -0.410267
    x_5        c_6020     1
    x_5        capacity   0.0820533
    x_6        OBJ        -1.24685
    x_6        c_6021     1
    x_6        capacity   0.249369
    x_7        OBJ        -9.24928
    x_7        c_6022     1
    x_7        capacity   1.84986
    x_8        OBJ        -2.00208
    x_8        c_6023     1
    x_8        capacity   0.400415
    x_9        OBJ        -3.43743
    x_9        c_6024     1
    x_9        capacity   0.687486
    x_10       OBJ        -8.27897
    x_10       c_6025     1
    x_10       capacity   1.65579
    x_11       OBJ        -1.87068
    x_11       c_6026     1
    x_11       capacity   0.374136
    x_12       OBJ        -8.76125
    x_12       c_6027     1
    x_12       capacity   1.75225
    x_13       OBJ        -0.422049
    x_13       c_6028     1
    x_13       capacity   0.0844099
    x_14       OBJ        -5.29634
    x_14       c_6029     1
    x_14       capacity   1.05927
    x_15       OBJ        -1.94951
    x_15       c_6030     1
    x_15       capacity   0.389902
    x_16       OBJ        -3.70653
    x_16       c_6031     1
    x_16       capacity   0.741307
    x_17       OBJ        -0.72326
    x_17       c_6032     1
    x_17       capacity   0.144652
    x_18       OBJ        -1.60154
    x_18       c_6033     1
    x_18       capacity   0.320308
    x_19       OBJ        -0.698592
    x_19       c_6034     1
    x_19       capacity   0.139718
    x_20       OBJ        -3.64614
    x_20       c_6035     1
    x_20       capacity   0.729228
    x_21       OBJ        -3.9021
    x_21       c_6036     1
    x_21       capacity   0.780419
    x_22       OBJ        -5.11609
    x_22       c_6037     1
    x_22       capacity   1.02322
    x_23       OBJ        -4.19261
    x_23       c_6038     1
    x_23       capacity   0.838521
    x_24       OBJ        -9.24368
    x_24       c_6039     1
    x_24       capacity   1.84874
    x_25       OBJ        -5.91394
    x_25       c_6040     1
    x_25       capacity   1.18279
    x_26       OBJ        -6.78392
    x_26       c_6041     1
    x_26       capacity   1.35678
    x_27       OBJ        -3.32411
    x_27       c_6042     1
    x_27       capacity   0.664822
    x_28       OBJ        -3.06644
    x_28       c_6043     1
    x_28       capacity   0.613287
    x_29       OBJ        -3.7407
    x_29       c_6044     1
    x_29       capacity   0.74814
    y_0        OBJ        -1.77648
    y_0        c_6015     1
    y_0        capacity   0.444119
    y_1        OBJ        -2.32344
    y_1        c_6016     1
    y_1        capacity   0.58086
    y_2        OBJ        -3.12583
    y_2        c_6017     1
    y_2        capacity   0.781458
    y_3        OBJ        -1.34434
    y_3        c_6018     1
    y_3        capacity   0.336086
    y_4        OBJ        -1.83722
    y_4        c_6019     1
    y_4        capacity   0.459305
    y_5        OBJ        -0.328213
    y_5        c_6020     1
    y_5        capacity   0.0820533
    y_6        OBJ        -0.997477
    y_6        c_6021     1
    y_6        capacity   0.249369
    y_7        OBJ        -7.39942
    y_7        c_6022     1
    y_7        capacity   1.84986
    y_8        OBJ        -1.60166
    y_8        c_6023     1
    y_8        capacity   0.400415
    y_9        OBJ        -2.74994
    y_9        c_6024     1
    y_9        capacity   0.687486
    y_10       OBJ        -6.62317
    y_10       c_6025     1
    y_10       capacity   1.65579
    y_11       OBJ        -1.49654
    y_11       c_6026     1
    y_11       capacity   0.374136
    y_12       OBJ        -7.009
    y_12       c_6027     1
    y_12       capacity   1.75225
    y_13       OBJ        -0.337639
    y_13       c_6028     1
    y_13       capacity   0.0844099
    y_14       OBJ        -4.23708
    y_14       c_6029     1
    y_14       capacity   1.05927
    y_15       OBJ        -1.55961
    y_15       c_6030     1
    y_15       capacity   0.389902
    y_16       OBJ        -2.96523
    y_16       c_6031     1
    y_16       capacity   0.741307
    y_17       OBJ        -0.578608
    y_17       c_6032     1
    y_17       capacity   0.144652
    y_18       OBJ        -1.28123
    y_18       c_6033     1
    y_18       capacity   0.320308
    y_19       OBJ        -0.558873
    y_19       c_6034     1
    y_19       capacity   0.139718
    y_20       OBJ        -2.91691
    y_20       c_6035     1
    y_20       capacity   0.729228
    y_21       OBJ        -3.12168
    y_21       c_6036     1
    y_21       capacity   0.780419
    y_22       OBJ        -4.09287
    y_22       c_6037     1
    y_22       capacity   1.02322
    y_23       OBJ        -3.35408
    y_23       c_6038     1
    y_23       capacity   0.838521
    y_24       OBJ        -7.39495
    y_24       c_6039     1
    y_24       capacity   1.84874
    y_25       OBJ        -4.73116
    y_25       c_6040     1
    y_25       capacity   1.18279
    y_26       OBJ        -5.42714
    y_26       c_6041     1
    y_26       capacity   1.35678
    y_27       OBJ        -2.65929
    y_27       c_6042     1
    y_27       capacity   0.664822
    y_28       OBJ        -2.45315
    y_28       c_6043     1
    y_28       capacity   0.613287
    y_29       OBJ        -2.99256
    y_29       c_6044     1
    y_29       capacity   0.74814
    MARKER    'MARKER'                 'INTEND'
RHS
    RHS       capacity   55.7967
    RHS       c_6015     1
    RHS       c_6016     1
    RHS       c_6017     1
    RHS       c_6018     1
    RHS       c_6019     1
    RHS       c_6020     1
    RHS       c_6021     1
    RHS       c_6022     1
    RHS       c_6023     1
    RHS       c_6024     1
    RHS       c_6025     1
    RHS       c_6026     1
    RHS       c_6027     1
    RHS       c_6028     1
    RHS       c_6029     1
    RHS       c_6030     1
    RHS       c_6031     1
    RHS       c_6032     1
    RHS       c_6033     1
    RHS       c_6034     1
    RHS       c_6035     1
    RHS       c_6036     1
    RHS       c_6037     1
    RHS       c_6038     1
    RHS       c_6039     1
    RHS       c_6040     1
    RHS       c_6041     1
    RHS       c_6042     1
    RHS       c_6043     1
    RHS       c_6044     1
BOUNDS
 LI BND       x_0        0
 UI BND       x_0        1
 LI BND       x_1        0
 UI BND       x_1        1
 LI BND       x_2        0
 UI BND       x_2        1
 LI BND       x_3        0
 UI BND       x_3        1
 LI BND       x_4        0
 UI BND       x_4        1
 LI BND       x_5        0
 UI BND       x_5        1
 LI BND       x_6        0
 UI BND       x_6        1
 LI BND       x_7        0
 UI BND       x_7        1
 LI BND       x_8        0
 UI BND       x_8        1
 LI BND       x_9        0
 UI BND       x_9        1
 LI BND       x_10       0
 UI BND       x_10       1
 LI BND       x_11       0
 UI BND       x_11       1
 LI BND       x_12       0
 UI BND       x_12       1
 LI BND       x_13       0
 UI BND       x_13       1
 LI BND       x_14       0
 UI BND       x_14       1
 LI BND       x_15       0
 UI BND       x_15       1
 LI BND       x_16       0
 UI BND       x_16       1
 LI BND       x_17       0
 UI BND       x_17       1
 LI BND       x_18       0
 UI BND       x_18       1
 LI BND       x_19       0
 UI BND       x_19       1
 LI BND       x_20       0
 UI BND       x_20       1
 LI BND       x_21       0
 UI BND       x_21       1
 LI BND       x_22       0
 UI BND       x_22       1
 LI BND       x_23       0
 UI BND       x_23       1
 LI BND       x_24       0
 UI BND       x_24       1
 LI BND       x_25       0
 UI BND       x_25       1
 LI BND       x_26       0
 UI BND       x_26       1
 LI BND       x_27       0
 UI BND       x_27       1
 LI BND       x_28       0
 UI BND       x_28       1
 LI BND       x_29       0
 UI BND       x_29       1
 LI BND       y_0        0
 UI BND       y_0        1
 LI BND       y_1        0
 UI BND       y_1        1
 LI BND       y_2        0
 UI BND       y_2        1
 LI BND       y_3        0
 UI BND       y_3        1
 LI BND       y_4        0
 UI BND       y_4        1
 LI BND       y_5        0
 UI BND       y_5        1
 LI BND       y_6        0
 UI BND       y_6        1
 LI BND       y_7        0
 UI BND       y_7        1
 LI BND       y_8        0
 UI BND       y_8        1
 LI BND       y_9        0
 UI BND       y_9        1
 LI BND       y_10       0
 UI BND       y_10       1
 LI BND       y_11       0
 UI BND       y_11       1
 LI BND       y_12       0
 UI BND       y_12       1
 LI BND       y_13       0
 UI BND       y_13       1
 LI BND       y_14       0
 UI BND       y_14       1
 LI BND       y_15       0
 UI BND       y_15       1
 LI BND       y_16       0
 UI BND       y_16       1
 LI BND       y_17       0
 UI BND       y_17       1
 LI BND       y_18       0
 UI BND       y_18       1
 LI BND       y_19       0
 UI BND       y_19       1
 LI BND       y_20       0
 UI BND       y_20       1
 LI BND       y_21       0
 UI BND       y_21       1
 LI BND       y_22       0
 UI BND       y_22       1
 LI BND       y_23       0
 UI BND       y_23       1
 LI BND       y_24       0
 UI BND       y_24       1
 LI BND       y_25       0
 UI BND       y_25       1
 LI BND       y_26       0
 UI BND       y_26       1
 LI BND       y_27       0
 UI BND       y_27       1
 LI BND       y_28       0
 UI BND       y_28       1
 LI BND       y_29       0
 UI BND       y_29       1
ENDATA
